NAME : A-n39-k5-20
TYPE : VRP-D
DIMENSION : 20 
CAPACITY : 100
NODE_COORD_SECTION 
 1 9 35
 2 43 19
 3 79 35
 4 93 7
 5 13 35
 6 67 13
 7 31 77
 8 81 7
 9 27 49
 10 27 35
 11 69 23
 12 31 51
 13 27 27
 14 15 83
 15 7 35
 16 53 25
 17 75 13
 18 47 49
 19 25 33
 20 1 23
DEMAND_SECTION 
1 0 
2 5 
3 24 
4 3 
5 20 
6 26 
7 23 
8 15 
9 3 
10 20 
11 16 
12 9 
13 21 
14 3 
15 24 
16 14 
17 6 
18 6 
19 13 
20 5 
DEPOT_SECTION 
 1  
 -1  
EOF 
